17	4
12	12	13	12	
0	0	0	0	0	3	2	3	4	
3	0	0	0	3	3	10	15	16	
2	10	0	0	0	3	7	11	16	
8	0	7	7	0	3	5	6	17	
4	2	0	9	6	3	14	17	17	
75	0	0	8	0	3	8	12	15	
100	0	5	0	0	3	9	13	17	
25	9	0	0	0	3	9	17	17	
125	0	0	3	0	3	14	17	17	
75	4	0	8	0	3	14	17	17	
100	2	0	4	4	3	13	17	17	
50	5	3	2	2	3	17	17	17	
8	0	10	1	0	3	15	17	17	
10	5	9	0	9	1	17	
3	0	4	0	5	3	17	17	17	
9	2	3	0	0	1	17	
0	0	0	0	0	0	
